09-routing/solutions/XSH-n20-k4-26.opt.sol
Route #1: 15 6 4 13 20
Route #2: 3 19 18 5 17 7
Route #3: 11 2 9 14
Route #4: 16 10 1 8 12
Cost 688
